Gurobi 12.0.0:   lim:time = 14400

  mip:bestbound = 1

Set parameter LogToConsole to value 1

  tech:outlev = 1

Set parameter Cuts to value 3

  cut:cuts = 3

Set parameter Presolve to value 2

  pre:solve = 2

Set parameter MIPFocus to value 2

  mip:focus = 2

Set parameter Symmetry to value 2

  mip:symmetry = 2

Set parameter InfUnbdInfo to value 1

Gurobi Optimizer version 12.0.0 build v12.0.0rc1 (win64 - Windows 11.0 (26100.2))



CPU model: 11th Gen Intel(R) Core(TM) i7-11700 @ 2.50GHz, instruction set [SSE2|AVX|AVX2|AVX512]

Thread count: 8 physical cores, 16 logical processors, using up to 16 threads



Non-default parameters:

TimeLimit  14400

MIPFocus  2

Symmetry  2

Cuts  3

InfUnbdInfo  1

Presolve  2



Optimize a model with 427 rows, 906 columns and 5164 nonzeros

Model fingerprint: 0x91b4749c

Model has 3 quadratic objective terms

Model has 8 quadratic constraints

Variable types: 37 continuous, 869 integer (0 binary)

Coefficient statistics:

  Matrix range     [1e+00, 1e+05]

  QMatrix range    [1e+00, 1e+00]

  QLMatrix range   [1e+00, 1e+01]

  Objective range  [3e+00, 1e+02]

  QObjective range [2e+00, 2e+00]

  Bounds range     [1e+00, 1e+02]

  RHS range        [1e+00, 1e+05]

  QRHS range       [1e+02, 1e+02]

Presolve removed 30 rows and 95 columns

Presolve time: 0.28s

Presolved: 964 rows, 1318 columns, 8080 nonzeros

Variable types: 171 continuous, 1147 integer (1039 binary)

Root relaxation presolve removed 32 rows and 0 columns

Root relaxation presolved: 626 rows, 1078 columns, 9868 nonzeros





Root relaxation: objective 8.780590e+01, 155 iterations, 0.01 seconds (0.01 work units)



    Nodes    |    Current Node    |     Objective Bounds      |     Work

 Expl Unexpl |  Obj  Depth IntInf | Incumbent    BestBd   Gap | It/Node Time



     0     0   87.80590    0   54          -   87.80590      -     -    0s

H    0     0                     573.9100000   89.11630  84.5%     -    0s

H    0     0                     534.7800000  136.11664  74.5%     -    0s

H    0     0                     532.7800000  136.11664  74.5%     -    0s

     0     0  147.54259    0   38  532.78000  147.54259  72.3%     -    0s

H    0     0                     469.0500000  147.54259  68.5%     -    0s

H    0     0                     433.7100000  147.54259  66.0%     -    0s

     0     0  147.54259    0   50  433.71000  147.54259  66.0%     -    0s

     0     0  147.54259    0   35  433.71000  147.54259  66.0%     -    0s

H    0     0                     412.6500000  150.13000  63.6%     -    0s

H    0     0                     367.8500000  150.13000  59.2%     -    0s

H    0     0                     367.3800000  150.13000  59.1%     -    0s

H    0     0                     367.1700000  150.13000  59.1%     -    0s

     0     0  150.13000    0   54  367.17000  150.13000  59.1%     -    0s

     0     0  152.01000    0   67  367.17000  152.01000  58.6%     -    0s

     0     0  153.62000    0   54  367.17000  153.62000  58.2%     -    0s

     0     0  153.62000    0   42  367.17000  153.62000  58.2%     -    0s

H    0     0                     357.9300000  153.62000  57.1%     -    1s

H    0     0                     355.3700000  153.62000  56.8%     -    1s

H    0     0                     354.3900000  153.62000  56.7%     -    1s

     0     0  163.56313    0   83  354.39000  163.56313  53.8%     -    1s

     0     0  170.79884    0   68  354.39000  170.79884  51.8%     -    1s

H    0     0                     332.7800000  173.88829  47.7%     -    1s

     0     0  175.04000    0   46  332.78000  175.04000  47.4%     -    1s

H    0     0                     323.4100000  175.04000  45.9%     -    1s

     0     0  175.04000    0   50  323.41000  175.04000  45.9%     -    1s

     0     0  175.35086    0   63  323.41000  175.35086  45.8%     -    2s

     0     0  175.35086    0   57  323.41000  175.35086  45.8%     -    2s

     0     0  177.73571    0   55  323.41000  177.73571  45.0%     -    2s

     0     0  178.52333    0   55  323.41000  178.52333  44.8%     -    2s

     0     2  178.52333    0   55  323.41000  178.52333  44.8%     -    2s

H   72    80                     323.1600000  178.52333  44.8%  24.6    2s

  2762  1120  217.78585   26   51  323.16000  197.39300  38.9%  18.8    5s

  6070  1288     cutoff   37       323.16000  200.90037  37.8%  21.2   10s

 13512  3075  256.92311   22   38  323.16000  222.21502  31.2%  20.6   15s

 21601  4181  284.05127   28   41  323.16000  236.89060  26.7%  21.9   20s

 29666  4328  294.00250   28   29  323.16000  251.97737  22.0%  22.3   25s

 39374  3520     cutoff   44       323.16000  270.72667  16.2%  22.2   31s

 45462  2106     cutoff   28       323.16000  284.84768  11.9%  21.9   35s



Cutting planes:

  Learned: 8

  Gomory: 41

  Lift-and-project: 4

  Cover: 51

  Implied bound: 102

  Projected implied bound: 14

  Clique: 39

  MIR: 44

  Mixing: 7

  StrongCG: 2

  Flow cover: 226

  GUB cover: 1

  Inf proof: 32

  Zero half: 166

  RLT: 62

  Relax-and-lift: 33



Explored 54381 nodes (1128804 simplex iterations) in 39.96 seconds (15.64 work units)

Thread count was 16 (of 16 available processors)



Solution count 10: 323.16 323.16 323.41 ... 367.85



Optimal solution found (tolerance 1.00e-04)

Best objective 3.231600000000e+02, best bound 3.231600000000e+02, gap 0.0000%

-----RESULTS INFO-----
running_time:  40.109
TC.best_bound:  323.16
TC:  323.16
MIP Gap (%):  0
=== Vehicle Routes ===
Vehicle 1: 0 → 1
Vehicle 1: 1 → 9
Vehicle 1: 3 → 19
Vehicle 1: 9 → 18
Vehicle 1: 12 → 3
Vehicle 1: 18 → 12
Vehicle 2: 0 → 2
Vehicle 2: 2 → 14
Vehicle 2: 14 → 19
Vehicle 3: 0 → 19
Vehicle 4: 0 → 19

=== Full Vehicle Routes ===
Vehicle 1: 0 → 1 → 9 → 18 → 12 → 3 → 0 (70<100)
Vehicle 2: 0 → 2 → 14 → 0 (83<100)
Vehicle 3: 0 → 0 (0<100)
Vehicle 4: 0 → 0 (0<100)
Arc used by MRT line: y variables:
MRT used: 12 → 13
Customer assigment to PL: u variables:
4 14
5 14
6 14
7 14
8 18
10 13
11 14
Node is served by regular vehicle: g variables:
1
2
3
9
18
12
14
Customer assigment to Home delivery: gm variables:
1
2
3
9
Node total demands: ntd variables:
1 13 1
2 13 1
3 12 1
8 0 0
9 10 1
10 0 0
11 0 0
18 23 1
12 12 1
13 0 0
14 70 1
15 0 0
16 0 0
17 0 0
Customer's demand delivered to PL: l variables:
4
5
6
7
8
10
11
Lockers load <= capacity:
23 <= 79
0 <= 81
12 <= 83
70 <= 100
0 <= 99
0 <= 94
0 <= 86
